
  32    4
  10   10   10   10

   0   0   0   0   0   3 2 3 5 
   6   1   1   0   1   2 10 4 
   6   4   3   0   2   2 10 4 
   1   3   5   1   0   2 9 6 
   4   3   0   4   6   3 14 10 9 
   6   3   4   2   0   2 11 7 
   9   5   1   0   7   1 8 
  10   0   5   7   4   3 18 14 12 
   9   6   0   3   3   1 11 
   3   0   3   4   6   1 11 
   4   1   0   5   1   2 18 12 
   4   4   4   0   3   1 13 
   5   5   4   0   3   2 19 15 
  10   1   0   4   2   2 19 15 
   8   5   0   3   5   2 17 16 
   4   0   3   4   4   2 24 20 
   5   0   4   4   5   2 24 20 
   9   4   0   2   5   1 19 
   2   0   6   6   2   1 20 
  10   6   0   5   7   1 21 
   9   4   0   5   3   1 22 
   4   0   4   5   8   2 26 23 
   8   6   0   3   5   5 31 30 29 27 25 
   9   3   5   6   0   3 29 27 25 
   9   5   0   3   5   1 28 
   8   2   5   0   3   1 27 
   8   9   6   0   3   1 32
   6   3   0   2   2   1 32
   4   5   4   0   4   1 32
   7   0   5   6   6   1 32
   3   4   0   4   3   1 32
   0   0   0   0   0   0 
